NAME : amz1162.96200_93200.tour
COMMENT : Cost = 96200_93200
COMMENT : Found by LKH-AMZ [Keld Helsgaun] Sun May 11 14:47:14 2025
COMMENT : TW viol.: 0 #: 0
TYPE : TOUR
DIMENSION : 128
TOUR_SECTION
49
38
13
21
108
122
116
119
95
68
63
71
79
10
11
46
97
118
18
89
98
56
9
70
25
113
64
24
59
4
26
6
61
57
42
33
51
106
43
37
23
67
93
75
103
58
39
15
102
120
107
112
54
88
16
110
69
82
62
53
41
2
114
20
121
31
124
40
99
50
47
8
73
12
78
76
19
90
3
125
32
80
65
34
86
105
17
84
27
52
128
35
74
127
48
22
83
111
72
77
123
117
7
29
1
44
30
14
60
66
91
45
100
94
81
5
126
101
55
36
115
92
96
87
28
104
85
109
-1
EOF
